clingo version 5.2.2
Reading from ...pr180_u540_o12_N010_encoding-a_minP.lp ...
Solving...
Solving...
Solving...
Solving...
Solving...
Solving...
Solving...
Solving...
Solving...
Solving...
Solving...
Solving...
Solving...
Solving...
Solving...
Solving...
Solving...
Solving...
Solving...
Solving...
Solving...
Solving...
Solving...
Solving...
Solving...
Solving...
Solving...
Solving...
Solving...
Solving...
Solving...
Solving...
Solving...
Solving...
Solving...
Solving...
Solving...
Solving...
Solving...
Solving...
Solving...
Solving...
Solving...
Solving...
Solving...
Solving...
Solving...
Solving...
Solving...
Solving...
Solving...
Solving...
Solving...
Solving...
Solving...
Solving...
Solving...
Solving...
Solving...
Solving...
Solving...
Solving...
Solving...
Solving...
Solving...
Solving...
Solving...
Solving...
Solving...
Solving...
Solving...
Solving...
Solving...
Solving...
Solving...
Solving...
Solving...
Solving...
Solving...
Solving...
Solving...
Solving...
Solving...
Solving...
Solving...
Solving...
Solving...
Solving...
Solving...
Solving...
Solving...
Solving...
Solving...
Solving...
Solving...
Solving...
Solving...
Solving...
Solving...
Solving...
Solving...
Solving...
Solving...
Solving...
Solving...
Solving...
Solving...
Solving...
Solving...
Solving...
Solving...
Solving...
Solving...
Solving...
Solving...
Solving...
Solving...
Solving...
Solving...
Solving...
Solving...
Solving...
Solving...
Solving...
Solving...
Solving...
Solving...
Solving...
Solving...
Solving...
Solving...
Solving...
Solving...
Solving...
Solving...
Solving...
Solving...
Solving...
Solving...
Solving...
Solving...
Solving...
Solving...
Solving...
Solving...
Solving...
Solving...
Solving...
Solving...
Solving...
Solving...
Solving...
Solving...
Solving...
Solving...
Solving...
Solving...
Solving...
Solving...
Solving...
Solving...
Solving...
Solving...
Solving...
Solving...
Solving...
Solving...
Solving...
Solving...
Solving...
Solving...
Solving...
Solving...
Solving...
Solving...
Solving...
Solving...
Solving...
Solving...
Solving...
Solving...
Solving...
Solving...
Solving...
Solving...
Solving...
Solving...
Solving...
Solving...
Solving...
Solving...
Solving...
Solving...
Solving...
Solving...
Solving...
Solving...
UNKNOWN

TIME LIMIT   : 1
Models       : 0+
Calls        : 198
Time         : 1799.964s (Solving: 95.69s 1st Model: 0.00s Unsat: 95.69s)
CPU Time     : 603.980s

Choices      : 14660   
Conflicts    : 10221    (Analyzed: 10043)
Restarts     : 43       (Average: 233.56 Last: 114)
Problems     : 199      (Average Length: 2.00 Splits: 0)
Lemmas       : 10043    (Deleted: 0)
  Binary     : 582      (Ratio:   5.80%)
  Ternary    : 1024     (Ratio:  10.20%)
  Conflict   : 10043    (Average Length:   10.1 Ratio: 100.00%) 
  Loop       : 0        (Average Length:    0.0 Ratio:   0.00%) 
  Other      : 0        (Average Length:    0.0 Ratio:   0.00%) 
Backjumps    : 10043    (Average:  1.51 Max:  39 Sum:  15117)
  Executed   : 9527     (Average:  1.45 Max:  39 Sum:  14598 Ratio:  96.57%)
  Bounded    : 516      (Average:  1.01 Max:   2 Sum:    519 Ratio:   3.43%)

Rules        : 20431902 (Original: 16353306)
  Choice     : 1372    
Atoms        : 8690087  (Original: 7585196 Auxiliary: 1104891)
Bodies       : 16243432 (Original: 13332104)
  Count      : 25586    (Original: 94699)
Equivalences : 17464242 (Atom=Atom: 5453707 Body=Body: 59326 Other: 11951209)
Tight        : Yes
Variables    : 3710192  (Eliminated:    0 Frozen: 325319)
Constraints  : 13523919 (Binary:  69.9% Ternary:  27.7% Other:   2.4%)

